
Gurobi 7.5.2 (mac64) logging started Fri Apr 13 01:52:57 2018

Academic license - for non-commercial use only

Gurobi 7.5.2 (mac64) logging started Fri Apr 13 01:53:21 2018

Academic license - for non-commercial use only

Gurobi 7.5.2 (mac64) logging started Fri Apr 13 02:05:45 2018

Academic license - for non-commercial use only

Gurobi 7.5.2 (mac64) logging started Fri Apr 13 02:05:50 2018

Academic license - for non-commercial use only

Gurobi 7.5.2 (mac64) logging started Fri Apr 13 02:05:57 2018

Academic license - for non-commercial use only

Gurobi 7.5.2 (mac64) logging started Fri Apr 13 02:06:09 2018

Academic license - for non-commercial use only
